NAME : 10_3_3_1_(08).dat
COMMENT : Henke, Speranza, Wäscher, 2015
TYPE : MCVRP
DIMENSION : 11
EDGE_WEIGHT_TYPE : DISTANCE_MATRIX
CAPACITY : 1000
VEHICLES : 3
PRODUCT TYPES : 3
COMPARTMENTS : 3
NODE_COORD_SECTION
1 50 50
2 80.15 4.67
3 29.75 83.06
4 44.83 8.52
5 58.11 88.18
6 16.63 88.81
7 84.79 84.67
8 59.95 47.32
9 95.66 77.5
10 0.4 20.21
11 5.46 78.24
DEMAND_SECTION
1 0 0 0
2 525 0 0
3 0 63 0
4 0 73 0
5 146 0 0
6 0 220 0
7 23 0 0
8 0 0 35
9 0 115 0
10 0 0 280
11 93 0 0
DEPOT_SECTION
1
EOF